
  12    4
  10   10   10   10

   0   0   0   0   0   5 2 3 5 7 11 
   4  10  10  10  10   3 10 8 6 
   9  10  10  10  10   1 4 
   2  10  10  10  10   2 9 8 
  10  10  10  10  10   2 9 8 
   6  10  10  10  10   1 9 
   8  10  10  10  10   1 8 
   3  10  10  10  10   1 12
   8  10  10  10  10   1 12
  10  10  10  10  10   1 12
   8  10  10  10  10   1 12
   0   0   0   0   0   0 
